NAME: ./prFile/tspFile/tsp_file81.tsp
COMMENT: TSP file generated by Python
TYPE: TSP
DIMENSION: 40
EDGE_WEIGHT_TYPE: EUC_2D
NODE_COORD_SECTION
1 83 57
2 75 38
3 92 46
4 71 28
5 44 54
6 100 48
7 57 60
8 72 85
9 35 50
10 6 14
11 8 94
12 86 72
13 5 84
14 87 93
15 8 20
16 15 66
17 56 61
18 75 53
19 26 69
20 73 23
21 88 53
22 49 38
23 98 11
24 89 59
25 13 97
26 83 88
27 9 74
28 12 70
29 3 88
30 93 83
31 3 39
32 77 12
33 88 84
34 32 71
35 26 58
36 40 70
37 32 79
38 91 71
39 35 50
40 100 76
EOF
